myproject/instances/20nodes/rnd46_20.tsp
NAME : rnd46_20.tsp
TYPE : TSP
DIMENSION : 20
EDGE_WEIGHT_TYPE : EUC_2D
NODE_COORD_SECTION
1 524 184
2 973 421
3 504 92
4 206 290
5 783 464
6 903 54
7 265 791
8 320 144
9 738 411
10 730 64
11 545 642
12 199 325
13 116 640
14 229 326
15 954 344
16 462 641
17 261 337
18 481 976
19 166 982
20 337 313
