myproject/instances/20nodes/rnd46_20.opt.tour
NAME : rnd46_20.tsp.tsp.opt.tour
TYPE : TOUR
DIMENSION : 20
TOUR_SECTION
1
3
8
20
17
14
4
12
13
7
19
18
16
11
9
5
2
15
6
10
-1